827.39 0
0 94 95 97 92 98 37 100 91 85 93 59 96 0
0 58 2 57 15 41 22 75 74 72 73 21 40 53 0
0 27 31 10 32 90 63 64 49 19 11 62 88 0
0 28 76 77 3 79 78 34 29 24 68 80 12 0
0 89 18 83 60 5 84 17 45 8 46 36 47 48 82 7 52 0
0 6 99 61 16 86 38 44 14 43 42 87 13 0
0 26 4 56 23 67 39 25 55 54 0
0 50 33 81 51 9 35 71 65 66 20 30 70 1 69 0